c 
c G(k,n,p) graph
c graph gen seed     : 356
c number of vertices : 25
c max number of edges: 500
c number of classes  : 2
c edge density       : 0.800000
c edge probability   : 1.600000
c data structure     : dense
c
c           Graph Stats
c number of vertices  : 25
c nonisolated vertices: 25
c number of edges     : 156
c edge density        : 0.520000
c max degree          : 13
c avg degree          : 12.48
c min degree          : 12
p col 25 156
e 1 3
e 1 5
e 1 7
e 1 9
e 1 10
e 1 14
e 1 15
e 1 17
e 1 19
e 1 20
e 1 21
e 1 22
e 2 3
e 2 5
e 2 7
e 2 9
e 2 10
e 2 14
e 2 15
e 2 17
e 2 19
e 2 20
e 2 21
e 2 22
e 3 4
e 3 6
e 3 8
e 3 11
e 3 12
e 3 13
e 3 16
e 3 18
e 3 23
e 3 24
e 3 25
e 4 5
e 4 7
e 4 9
e 4 10
e 4 14
e 4 15
e 4 17
e 4 19
e 4 20
e 4 21
e 4 22
e 5 6
e 5 8
e 5 11
e 5 12
e 5 13
e 5 16
e 5 18
e 5 23
e 5 24
e 5 25
e 6 7
e 6 9
e 6 10
e 6 14
e 6 15
e 6 17
e 6 19
e 6 20
e 6 21
e 6 22
e 7 8
e 7 11
e 7 12
e 7 13
e 7 16
e 7 18
e 7 23
e 7 24
e 7 25
e 8 9
e 8 10
e 8 14
e 8 15
e 8 17
e 8 19
e 8 20
e 8 21
e 8 22
e 9 11
e 9 12
e 9 13
e 9 16
e 9 18
e 9 23
e 9 24
e 9 25
e 10 11
e 10 12
e 10 13
e 10 16
e 10 18
e 10 23
e 10 24
e 10 25
e 11 14
e 11 15
e 11 17
e 11 19
e 11 20
e 11 21
e 11 22
e 12 14
e 12 15
e 12 17
e 12 19
e 12 20
e 12 21
e 12 22
e 13 14
e 13 15
e 13 17
e 13 19
e 13 20
e 13 21
e 13 22
e 14 16
e 14 18
e 14 23
e 14 24
e 14 25
e 15 16
e 15 18
e 15 23
e 15 24
e 15 25
e 16 17
e 16 19
e 16 20
e 16 21
e 16 22
e 17 18
e 17 23
e 17 24
e 17 25
e 18 19
e 18 20
e 18 21
e 18 22
e 19 23
e 19 24
e 19 25
e 20 23
e 20 24
e 20 25
e 21 23
e 21 24
e 21 25
e 22 23
e 22 24
e 22 25
